============================[ Problem Statistics ]=============================
|                                                                             |
|  Number of variables:           729                                         |
|  Number of clauses:            9360                                         |
|  Parse time:                   0.00 s                                       |
|  Eliminated clauses:           0.00 Mb                                      |
|  Simplification time:          0.00 s                                       |
|                                                                             |
============================[ Search Statistics ]==============================
| Conflicts |          ORIGINAL         |          LEARNT          | Progress |
|           |    Vars  Clauses Literals |    Limit  Clauses Lit/Cl |          |
===============================================================================
===============================================================================
restarts              : 1
conflicts             : 3              (578 /sec)
decisions             : 6              (0.00 % random) (1155 /sec)
propagations          : 866            (166763 /sec)
conflict literals     : 6              (0.00 % deleted)
Memory used           : 5.12 MB
CPU time              : 0.005193 s

SATISFIABLE
